(declare-fun b_1_path () Bool)
(declare-fun c_1_Global_M () (Array Int Int))
(declare-fun c_2_Global_M () (Array Int Int))
(declare-fun b_2_path () Bool)
(declare-fun c_3_Global_M () (Array Int Int))
(declare-fun b_3_path () Bool)
(declare-fun c_4_Global_M () (Array Int Int))
(declare-fun b_4_path () Bool)
(declare-fun c_5_Global_M () (Array Int Int))
(declare-fun b_5_path () Bool)
(declare-fun c_6_Global_M () (Array Int Int))
(declare-fun b_6_path () Bool)
(declare-fun c_7_Global_M () (Array Int Int))
(declare-fun b_7_path () Bool)
(declare-fun c_8_Global_M () (Array Int Int))
(declare-fun b_8_path () Bool)
(declare-fun c_9_Global_M () (Array Int Int))
(declare-fun b_9_path () Bool)
(declare-fun c_10_Global_M () (Array Int Int))
(declare-fun b_10_path () Bool)
(declare-fun c_11_Global_M () (Array Int Int))
(declare-fun b_11_path () Bool)
(declare-fun c_12_Global_M () (Array Int Int))
(declare-fun b_12_path () Bool)
(declare-fun c_13_Global_M () (Array Int Int))
(declare-fun b_13_path () Bool)
(declare-fun c_14_Global_M () (Array Int Int))
(declare-fun b_14_path () Bool)
(declare-fun c_15_Global_M () (Array Int Int))
(declare-fun b_15_path () Bool)
(declare-fun c_16_Global_M () (Array Int Int))
(declare-fun b_16_path () Bool)
(declare-fun c_17_Global_M () (Array Int Int))
(declare-fun b_17_path () Bool)
(declare-fun c_18_Global_M () (Array Int Int))
(declare-fun b_18_path () Bool)
(declare-fun c_19_Global_M () (Array Int Int))
(declare-fun b_19_path () Bool)
(declare-fun c_20_Global_M () (Array Int Int))
(declare-fun b_20_path () Bool)
(declare-fun c_21_Global_M () (Array Int Int))
(declare-fun b_21_path () Bool)
(declare-fun c_22_Global_M () (Array Int Int))
(declare-fun b_22_path () Bool)
(declare-fun c_23_Global_M () (Array Int Int))
(declare-fun b_23_path () Bool)
(declare-fun c_24_Global_M () (Array Int Int))
(declare-fun b_24_path () Bool)
(declare-fun c_25_Global_M () (Array Int Int))
(declare-fun b_25_path () Bool)
(declare-fun c_26_Global_M () (Array Int Int))
(declare-fun i_7_.masked.iter0 () Int)
(declare-fun i_6_ () Int)
(declare-fun i_2_ () Int)
(declare-fun i_5_ () Int)
(declare-fun i_1_ () Int)
(declare-fun i_4_ () Int)
(declare-fun i_3_ () Int)
(declare-fun i_12_.masked.iter1 () Int)
(declare-fun i_11_ () Int)
(declare-fun i_10_ () Int)
(declare-fun i_9_ () Int)
(declare-fun i_8_ () Int)
(declare-fun i_18_.masked.iter2 () Int)
(declare-fun i_17_ () Int)
(declare-fun i_16_ () Int)
(declare-fun i_15_ () Int)
(declare-fun i_14_ () Int)
(declare-fun i_24_.masked.iter3 () Int)
(declare-fun i_23_ () Int)
(declare-fun i_13_ () Int)
(declare-fun i_22_ () Int)
(declare-fun i_21_ () Int)
(declare-fun i_20_ () Int)
(declare-fun i_30_.masked.iter4 () Int)
(declare-fun i_29_ () Int)
(declare-fun i_19_ () Int)
(declare-fun i_28_ () Int)
(declare-fun i_27_ () Int)
(declare-fun i_26_ () Int)
(declare-fun i_36_.masked.iter5 () Int)
(declare-fun i_35_ () Int)
(declare-fun i_25_ () Int)
(declare-fun i_34_ () Int)
(declare-fun i_33_ () Int)
(declare-fun i_32_ () Int)
(declare-fun i_42_.masked.iter6 () Int)
(declare-fun i_41_ () Int)
(declare-fun i_31_ () Int)
(declare-fun i_40_ () Int)
(declare-fun i_39_ () Int)
(declare-fun i_38_ () Int)
(declare-fun i_48_.masked.iter7 () Int)
(declare-fun i_47_ () Int)
(declare-fun i_37_ () Int)
(declare-fun i_46_ () Int)
(declare-fun i_45_ () Int)
(declare-fun i_44_ () Int)
(declare-fun i_49_.01.lcssa () Int)
(declare-fun i_50_ret_val () Int)
(assert true)
(assert (=> b_1_path (or (and true true))))
(assert (and (=> (and true true) (= c_2_Global_M c_1_Global_M))))
(assert and)
(assert (=> b_2_path (or (and b_1_path true))))
(assert (and (=> (and b_1_path true) (= c_3_Global_M c_2_Global_M))))
(assert and)
(assert (=> b_3_path (or (and b_2_path true))))
(assert (and (=> (and b_2_path true) (= c_4_Global_M c_3_Global_M))))
(assert and)
(assert (=> b_4_path (or (and b_3_path true))))
(assert (and (=> (and b_3_path true) (= c_5_Global_M c_4_Global_M))))
(assert and)
(assert (=> b_5_path (or (and b_4_path true))))
(assert (and (=> (and b_4_path true) (= c_6_Global_M c_5_Global_M))))
(assert and)
(assert (=> b_6_path (or (and b_5_path true))))
(assert (and (=> (and b_5_path true) (= c_7_Global_M c_6_Global_M))))
(assert and)
(assert (=> b_7_path (or (and b_6_path true))))
(assert (and (=> (and b_6_path true) (= c_8_Global_M c_7_Global_M))))
(assert and)
(assert (=> b_8_path (or (and b_7_path true))))
(assert (and (=> (and b_7_path true) (= c_9_Global_M c_8_Global_M))))
(assert and)
(assert (=> b_9_path (or (and b_8_path true))))
(assert (and (=> (and b_8_path true) (= c_10_Global_M c_9_Global_M))))
(assert and)
(assert (=> b_10_path (or (and b_9_path true))))
(assert (and (=> (and b_9_path true) (= c_11_Global_M c_10_Global_M))))
(assert and)
(assert (=> b_11_path (or (and b_10_path true))))
(assert (and (=> (and b_10_path true) (= c_12_Global_M c_11_Global_M))))
(assert and)
(assert (=> b_12_path (or (and b_11_path true))))
(assert (and (=> (and b_11_path true) (= c_13_Global_M c_12_Global_M))))
(assert and)
(assert (=> b_13_path (or (and b_12_path true))))
(assert (and (=> (and b_12_path true) (= c_14_Global_M c_13_Global_M))))
(assert and)
(assert (=> b_14_path (or (and b_13_path true))))
(assert (and (=> (and b_13_path true) (= c_15_Global_M c_14_Global_M))))
(assert and)
(assert (=> b_15_path (or (and b_14_path true))))
(assert (and (=> (and b_14_path true) (= c_16_Global_M c_15_Global_M))))
(assert and)
(assert (=> b_16_path (or (and b_15_path true))))
(assert (and (=> (and b_15_path true) (= c_17_Global_M c_16_Global_M))))
(assert and)
(assert (=> b_17_path (or (and b_16_path true))))
(assert (and (=> (and b_16_path true) (= c_18_Global_M c_17_Global_M))))
(assert and)
(assert (=> b_18_path (or (and b_17_path true))))
(assert (and (=> (and b_17_path true) (= c_19_Global_M c_18_Global_M))))
(assert and)
(assert (=> b_19_path (or (and b_18_path true))))
(assert (and (=> (and b_18_path true) (= c_20_Global_M c_19_Global_M))))
(assert and)
(assert (=> b_20_path (or (and b_19_path true))))
(assert (and (=> (and b_19_path true) (= c_21_Global_M c_20_Global_M))))
(assert and)
(assert (=> b_21_path (or (and b_20_path true))))
(assert (and (=> (and b_20_path true) (= c_22_Global_M c_21_Global_M))))
(assert and)
(assert (=> b_22_path (or (and b_21_path true))))
(assert (and (=> (and b_21_path true) (= c_23_Global_M c_22_Global_M))))
(assert and)
(assert (=> b_23_path (or (and b_22_path true))))
(assert (and (=> (and b_22_path true) (= c_24_Global_M c_23_Global_M))))
(assert and)
(assert (=> b_24_path (or (and b_23_path true))))
(assert (and (=> (and b_23_path true) (= c_25_Global_M c_24_Global_M))))
(assert and)
(assert (=> b_25_path (or (and b_24_path true))))
(assert (and (=> (and b_24_path true) (= c_26_Global_M c_25_Global_M))))
(assert and)
(assert (let ((a!1 (ite (= (rem (select c_24_Global_M i_1_) 2) 1)
                (select c_24_Global_M i_37_)
                0))
      (a!12 (ite (= (rem (select c_21_Global_M i_1_) 2) 1)
                 (select c_21_Global_M i_31_)
                 0))
      (a!23 (ite (= (rem (select c_18_Global_M i_1_) 2) 1)
                 (select c_18_Global_M i_25_)
                 0))
      (a!34 (ite (= (rem (select c_15_Global_M i_1_) 2) 1)
                 (select c_15_Global_M i_19_)
                 0))
      (a!45 (ite (= (rem (select c_12_Global_M i_1_) 2) 1)
                 (select c_12_Global_M i_13_)
                 0))
      (a!56 (ite (= (rem (select c_9_Global_M i_1_) 2) 1)
                 (select c_9_Global_M 2)
                 0))
      (a!67 (ite (= (rem (select c_6_Global_M i_1_) 2) 1)
                 (select c_6_Global_M i_2_)
                 0))
      (a!78 (ite (= (rem (select c_3_Global_M i_1_) 2) 1)
                 (select c_3_Global_M i_2_)
                 0)))
(let ((a!2 (bvxor ((_ int2bv 8) a!1)
                  ((_ int2bv 8) (* i_46_ (select c_24_Global_M i_37_)))))
      (a!13 (bvxor ((_ int2bv 8) a!12)
                   ((_ int2bv 8) (* i_40_ (select c_21_Global_M i_31_)))))
      (a!24 (bvxor ((_ int2bv 8) a!23)
                   ((_ int2bv 8) (* i_34_ (select c_18_Global_M i_25_)))))
      (a!35 (bvxor ((_ int2bv 8) a!34)
                   ((_ int2bv 8) (* i_28_ (select c_15_Global_M i_19_)))))
      (a!46 (bvxor ((_ int2bv 8) a!45)
                   ((_ int2bv 8) (* i_22_ (select c_12_Global_M i_13_)))))
      (a!57 (bvxor ((_ int2bv 8) a!56)
                   ((_ int2bv 8) (* i_16_ (select c_9_Global_M 2)))))
      (a!68 (bvxor ((_ int2bv 8) a!67)
                   ((_ int2bv 8) (* i_10_ (select c_6_Global_M i_2_)))))
      (a!79 (bvxor ((_ int2bv 8) a!78)
                   ((_ int2bv 8) (* i_5_ (select c_3_Global_M i_2_))))))
(let ((a!3 ((_ int2bv 8)
             (ite (bvslt a!2 #x00) (- (bv2int a!2) 256) (bv2int a!2))))
      (a!14 ((_ int2bv 8)
              (ite (bvslt a!13 #x00) (- (bv2int a!13) 256) (bv2int a!13))))
      (a!25 ((_ int2bv 8)
              (ite (bvslt a!24 #x00) (- (bv2int a!24) 256) (bv2int a!24))))
      (a!36 ((_ int2bv 8)
              (ite (bvslt a!35 #x00) (- (bv2int a!35) 256) (bv2int a!35))))
      (a!47 ((_ int2bv 8)
              (ite (bvslt a!46 #x00) (- (bv2int a!46) 256) (bv2int a!46))))
      (a!58 ((_ int2bv 8)
              (ite (bvslt a!57 #x00) (- (bv2int a!57) 256) (bv2int a!57))))
      (a!69 ((_ int2bv 8)
              (ite (bvslt a!68 #x00) (- (bv2int a!68) 256) (bv2int a!68))))
      (a!80 ((_ int2bv 8)
              (ite (bvslt a!79 #x00) (- (bv2int a!79) 256) (bv2int a!79)))))
(let ((a!4 (bvxor ((_ int2bv 8) (* i_45_ (select c_24_Global_M i_37_))) a!3))
      (a!15 (bvxor ((_ int2bv 8) (* i_39_ (select c_21_Global_M i_31_))) a!14))
      (a!26 (bvxor ((_ int2bv 8) (* i_33_ (select c_18_Global_M i_25_))) a!25))
      (a!37 (bvxor ((_ int2bv 8) (* i_27_ (select c_15_Global_M i_19_))) a!36))
      (a!48 (bvxor ((_ int2bv 8) (* i_21_ (select c_12_Global_M i_13_))) a!47))
      (a!59 (bvxor ((_ int2bv 8) (* i_15_ (select c_9_Global_M 2))) a!58))
      (a!70 (bvxor ((_ int2bv 8) (* i_9_ (select c_6_Global_M i_2_))) a!69))
      (a!81 (bvxor ((_ int2bv 8) (* i_4_ (select c_3_Global_M i_2_))) a!80)))
(let ((a!5 ((_ int2bv 8)
             (ite (bvslt a!4 #x00) (- (bv2int a!4) 256) (bv2int a!4))))
      (a!16 ((_ int2bv 8)
              (ite (bvslt a!15 #x00) (- (bv2int a!15) 256) (bv2int a!15))))
      (a!27 ((_ int2bv 8)
              (ite (bvslt a!26 #x00) (- (bv2int a!26) 256) (bv2int a!26))))
      (a!38 ((_ int2bv 8)
              (ite (bvslt a!37 #x00) (- (bv2int a!37) 256) (bv2int a!37))))
      (a!49 ((_ int2bv 8)
              (ite (bvslt a!48 #x00) (- (bv2int a!48) 256) (bv2int a!48))))
      (a!60 ((_ int2bv 8)
              (ite (bvslt a!59 #x00) (- (bv2int a!59) 256) (bv2int a!59))))
      (a!71 ((_ int2bv 8)
              (ite (bvslt a!70 #x00) (- (bv2int a!70) 256) (bv2int a!70))))
      (a!82 ((_ int2bv 8)
              (ite (bvslt a!81 #x00) (- (bv2int a!81) 256) (bv2int a!81)))))
(let ((a!6 (bvxor ((_ int2bv 8) (* i_44_ (select c_24_Global_M i_37_))) a!5))
      (a!17 (bvxor ((_ int2bv 8) (* i_38_ (select c_21_Global_M i_31_))) a!16))
      (a!28 (bvxor ((_ int2bv 8) (* i_32_ (select c_18_Global_M i_25_))) a!27))
      (a!39 (bvxor ((_ int2bv 8) (* i_26_ (select c_15_Global_M i_19_))) a!38))
      (a!50 (bvxor ((_ int2bv 8) (* i_20_ (select c_12_Global_M i_13_))) a!49))
      (a!61 (bvxor ((_ int2bv 8) (* i_14_ (select c_9_Global_M 2))) a!60))
      (a!72 (bvxor ((_ int2bv 8) (* i_8_ (select c_6_Global_M i_2_))) a!71))
      (a!83 (bvxor ((_ int2bv 8) (* i_3_ (select c_3_Global_M i_2_))) a!82)))
(let ((a!7 (div (ite (bvslt a!6 #x00) (- (bv2int a!6) 256) (bv2int a!6))
                (to_int (^ 2 4))))
      (a!18 (div (ite (bvslt a!17 #x00) (- (bv2int a!17) 256) (bv2int a!17))
                 (to_int (^ 2 4))))
      (a!29 (div (ite (bvslt a!28 #x00) (- (bv2int a!28) 256) (bv2int a!28))
                 (to_int (^ 2 4))))
      (a!40 (div (ite (bvslt a!39 #x00) (- (bv2int a!39) 256) (bv2int a!39))
                 (to_int (^ 2 4))))
      (a!51 (div (ite (bvslt a!50 #x00) (- (bv2int a!50) 256) (bv2int a!50))
                 (to_int (^ 2 4))))
      (a!62 (div (ite (bvslt a!61 #x00) (- (bv2int a!61) 256) (bv2int a!61))
                 (to_int (^ 2 4))))
      (a!73 (div (ite (bvslt a!72 #x00) (- (bv2int a!72) 256) (bv2int a!72))
                 (to_int (^ 2 4))))
      (a!84 (div (ite (bvslt a!83 #x00) (- (bv2int a!83) 256) (bv2int a!83))
                 (to_int (^ 2 4)))))
(let ((a!8 (- (bv2int (bvxor ((_ int2bv 8) a!7) ((_ int2bv 8) i_47_))) 256))
      (a!19 (- (bv2int (bvxor ((_ int2bv 8) a!18) ((_ int2bv 8) i_41_))) 256))
      (a!30 (- (bv2int (bvxor ((_ int2bv 8) a!29) ((_ int2bv 8) i_35_))) 256))
      (a!41 (- (bv2int (bvxor ((_ int2bv 8) a!40) ((_ int2bv 8) i_29_))) 256))
      (a!52 (- (bv2int (bvxor ((_ int2bv 8) a!51) ((_ int2bv 8) i_23_))) 256))
      (a!63 (- (bv2int (bvxor ((_ int2bv 8) a!62) ((_ int2bv 8) i_17_))) 256))
      (a!74 (- (bv2int (bvxor ((_ int2bv 8) a!73) ((_ int2bv 8) i_11_))) 256))
      (a!85 (- (bv2int (bvxor ((_ int2bv 8) a!84) ((_ int2bv 8) i_6_))) 256)))
(let ((a!9 (ite (bvslt (bvxor ((_ int2bv 8) a!7) ((_ int2bv 8) i_47_)) #x00)
                a!8
                (bv2int (bvxor ((_ int2bv 8) a!7) ((_ int2bv 8) i_47_)))))
      (a!20 (ite (bvslt (bvxor ((_ int2bv 8) a!18) ((_ int2bv 8) i_41_)) #x00)
                 a!19
                 (bv2int (bvxor ((_ int2bv 8) a!18) ((_ int2bv 8) i_41_)))))
      (a!31 (ite (bvslt (bvxor ((_ int2bv 8) a!29) ((_ int2bv 8) i_35_)) #x00)
                 a!30
                 (bv2int (bvxor ((_ int2bv 8) a!29) ((_ int2bv 8) i_35_)))))
      (a!42 (ite (bvslt (bvxor ((_ int2bv 8) a!40) ((_ int2bv 8) i_29_)) #x00)
                 a!41
                 (bv2int (bvxor ((_ int2bv 8) a!40) ((_ int2bv 8) i_29_)))))
      (a!53 (ite (bvslt (bvxor ((_ int2bv 8) a!51) ((_ int2bv 8) i_23_)) #x00)
                 a!52
                 (bv2int (bvxor ((_ int2bv 8) a!51) ((_ int2bv 8) i_23_)))))
      (a!64 (ite (bvslt (bvxor ((_ int2bv 8) a!62) ((_ int2bv 8) i_17_)) #x00)
                 a!63
                 (bv2int (bvxor ((_ int2bv 8) a!62) ((_ int2bv 8) i_17_)))))
      (a!75 (ite (bvslt (bvxor ((_ int2bv 8) a!73) ((_ int2bv 8) i_11_)) #x00)
                 a!74
                 (bv2int (bvxor ((_ int2bv 8) a!73) ((_ int2bv 8) i_11_)))))
      (a!86 (ite (bvslt (bvxor ((_ int2bv 8) a!84) ((_ int2bv 8) i_6_)) #x00)
                 a!85
                 (bv2int (bvxor ((_ int2bv 8) a!84) ((_ int2bv 8) i_6_))))))
(let ((a!10 (- (bv2int (bvxor ((_ int2bv 8) a!9)
                              ((_ int2bv 8) i_48_.masked.iter7)))
               256))
      (a!21 (- (bv2int (bvxor ((_ int2bv 8) a!20)
                              ((_ int2bv 8) i_42_.masked.iter6)))
               256))
      (a!32 (- (bv2int (bvxor ((_ int2bv 8) a!31)
                              ((_ int2bv 8) i_36_.masked.iter5)))
               256))
      (a!43 (- (bv2int (bvxor ((_ int2bv 8) a!42)
                              ((_ int2bv 8) i_30_.masked.iter4)))
               256))
      (a!54 (- (bv2int (bvxor ((_ int2bv 8) a!53)
                              ((_ int2bv 8) i_24_.masked.iter3)))
               256))
      (a!65 (- (bv2int (bvxor ((_ int2bv 8) a!64)
                              ((_ int2bv 8) i_18_.masked.iter2)))
               256))
      (a!76 (- (bv2int (bvxor ((_ int2bv 8) a!75)
                              ((_ int2bv 8) i_12_.masked.iter1)))
               256))
      (a!87 (- (bv2int (bvxor ((_ int2bv 8) a!86)
                              ((_ int2bv 8) i_7_.masked.iter0)))
               256)))
(let ((a!11 (ite (bvslt (bvxor ((_ int2bv 8) a!9)
                               ((_ int2bv 8) i_48_.masked.iter7))
                        #x00)
                 a!10
                 (bv2int (bvxor ((_ int2bv 8) a!9)
                                ((_ int2bv 8) i_48_.masked.iter7)))))
      (a!22 (ite (bvslt (bvxor ((_ int2bv 8) a!20)
                               ((_ int2bv 8) i_42_.masked.iter6))
                        #x00)
                 a!21
                 (bv2int (bvxor ((_ int2bv 8) a!20)
                                ((_ int2bv 8) i_42_.masked.iter6)))))
      (a!33 (ite (bvslt (bvxor ((_ int2bv 8) a!31)
                               ((_ int2bv 8) i_36_.masked.iter5))
                        #x00)
                 a!32
                 (bv2int (bvxor ((_ int2bv 8) a!31)
                                ((_ int2bv 8) i_36_.masked.iter5)))))
      (a!44 (ite (bvslt (bvxor ((_ int2bv 8) a!42)
                               ((_ int2bv 8) i_30_.masked.iter4))
                        #x00)
                 a!43
                 (bv2int (bvxor ((_ int2bv 8) a!42)
                                ((_ int2bv 8) i_30_.masked.iter4)))))
      (a!55 (ite (bvslt (bvxor ((_ int2bv 8) a!53)
                               ((_ int2bv 8) i_24_.masked.iter3))
                        #x00)
                 a!54
                 (bv2int (bvxor ((_ int2bv 8) a!53)
                                ((_ int2bv 8) i_24_.masked.iter3)))))
      (a!66 (ite (bvslt (bvxor ((_ int2bv 8) a!64)
                               ((_ int2bv 8) i_18_.masked.iter2))
                        #x00)
                 a!65
                 (bv2int (bvxor ((_ int2bv 8) a!64)
                                ((_ int2bv 8) i_18_.masked.iter2)))))
      (a!77 (ite (bvslt (bvxor ((_ int2bv 8) a!75)
                               ((_ int2bv 8) i_12_.masked.iter1))
                        #x00)
                 a!76
                 (bv2int (bvxor ((_ int2bv 8) a!75)
                                ((_ int2bv 8) i_12_.masked.iter1)))))
      (a!88 (ite (bvslt (bvxor ((_ int2bv 8) a!86)
                               ((_ int2bv 8) i_7_.masked.iter0))
                        #x00)
                 a!87
                 (bv2int (bvxor ((_ int2bv 8) a!86)
                                ((_ int2bv 8) i_7_.masked.iter0))))))
(let ((a!89 (- (bv2int (bvxor ((_ int2bv 8) a!88) ((_ int2bv 8) 0))) 256)))
(let ((a!90 (ite (bvslt (bvxor ((_ int2bv 8) a!88) ((_ int2bv 8) 0)) #x00)
                 a!89
                 (bv2int (bvxor ((_ int2bv 8) a!88) ((_ int2bv 8) 0))))))
(let ((a!91 (- (bv2int (bvxor ((_ int2bv 8) a!77) ((_ int2bv 8) a!90))) 256)))
(let ((a!92 (ite (bvslt (bvxor ((_ int2bv 8) a!77) ((_ int2bv 8) a!90)) #x00)
                 a!91
                 (bv2int (bvxor ((_ int2bv 8) a!77) ((_ int2bv 8) a!90))))))
(let ((a!93 (- (bv2int (bvxor ((_ int2bv 8) a!66) ((_ int2bv 8) a!92))) 256)))
(let ((a!94 (ite (bvslt (bvxor ((_ int2bv 8) a!66) ((_ int2bv 8) a!92)) #x00)
                 a!93
                 (bv2int (bvxor ((_ int2bv 8) a!66) ((_ int2bv 8) a!92))))))
(let ((a!95 (- (bv2int (bvxor ((_ int2bv 8) a!55) ((_ int2bv 8) a!94))) 256)))
(let ((a!96 (ite (bvslt (bvxor ((_ int2bv 8) a!55) ((_ int2bv 8) a!94)) #x00)
                 a!95
                 (bv2int (bvxor ((_ int2bv 8) a!55) ((_ int2bv 8) a!94))))))
(let ((a!97 (- (bv2int (bvxor ((_ int2bv 8) a!44) ((_ int2bv 8) a!96))) 256)))
(let ((a!98 (ite (bvslt (bvxor ((_ int2bv 8) a!44) ((_ int2bv 8) a!96)) #x00)
                 a!97
                 (bv2int (bvxor ((_ int2bv 8) a!44) ((_ int2bv 8) a!96))))))
(let ((a!99 (- (bv2int (bvxor ((_ int2bv 8) a!33) ((_ int2bv 8) a!98))) 256)))
(let ((a!100 (ite (bvslt (bvxor ((_ int2bv 8) a!33) ((_ int2bv 8) a!98)) #x00)
                  a!99
                  (bv2int (bvxor ((_ int2bv 8) a!33) ((_ int2bv 8) a!98))))))
(let ((a!101 (- (bv2int (bvxor ((_ int2bv 8) a!22) ((_ int2bv 8) a!100))) 256)))
(let ((a!102 (ite (bvslt (bvxor ((_ int2bv 8) a!22) ((_ int2bv 8) a!100)) #x00)
                  a!101
                  (bv2int (bvxor ((_ int2bv 8) a!22) ((_ int2bv 8) a!100))))))
(let ((a!103 (- (bv2int (bvxor ((_ int2bv 8) a!11) ((_ int2bv 8) a!102))) 256)))
(let ((a!104 (ite (bvslt (bvxor ((_ int2bv 8) a!11) ((_ int2bv 8) a!102)) #x00)
                  a!103
                  (bv2int (bvxor ((_ int2bv 8) a!11) ((_ int2bv 8) a!102))))))
  (and (=> (and b_24_path true) (= i_49_.01.lcssa a!104)))))))))))))))))))))))))))))))
(assert (= i_50_ret_val i_49_.01.lcssa))
(assert (not (or (not b_25_path) (= i_1_ 9))))
(check-sat)
